//Dat File

outFile="MPVSBPP_SET1_IT200_ITV1_NT2_TS3_WT1_VT1_REP3";
m=200;
o=96;
p=3;
numVTypes=3;

demand = [5, 3, 8, 4, 10, 5, 1, 4, 2, 8, 1, 6, 6, 7, 2, 11, 7, 10, 3, 8, 6, 4, 2, 4, 1, 4, 1, 2, 7, 6, 8, 3, 11, 7, 8, 6, 6, 11, 5, 3, 7, 7, 8, 4, 3, 3, 11, 7, 6, 2, 10, 3, 11, 9, 9, 7, 11, 11, 4, 9, 3, 2, 11, 2, 9, 2, 2, 7, 3, 10, 7, 4, 8, 2, 3, 7, 5, 10, 5, 1, 10, 3, 6, 11, 10, 8, 10, 2, 5, 9, 1, 11, 1, 3, 11, 6, 8, 1, 1, 5, 4, 7, 7, 4, 9, 10, 7, 8, 3, 1, 7, 7, 8, 1, 7, 3, 8, 2, 11, 6, 7, 1, 4, 11, 1, 4, 7, 1, 6, 11, 8, 1, 1, 9, 4, 8, 3, 7, 10, 2, 7, 9, 4, 10, 1, 7, 8, 3, 6, 8, 14, 16, 12, 16, 16, 13, 13, 17, 16, 13, 15, 14, 15, 17, 14, 19, 16, 14, 12, 16, 14, 18, 16, 15, 12, 13, 13, 17, 16, 19, 18, 18, 17, 17, 19, 14, 19, 12, 14, 15, 18, 15, 16, 14, 18, 14, 19, 13, 14, 18];
Depot_Cap = [30000, 30000, 30000];
Tarif = [10, 3, 7];
VeicVolume = [100, 150, 200];
VeicCost = [100, 120, 140];
VeicType = [1, 1, 1, 1, 1, 1, 1, 1, 1, 1, 1, 1, 1, 1, 1, 1, 1, 1, 1, 1, 1, 1, 1, 1, 1, 1, 1, 1, 1, 1, 1, 1, 2, 2, 2, 2, 2, 2, 2, 2, 2, 2, 2, 2, 2, 2, 2, 2, 2, 2, 2, 2, 2, 2, 2, 2, 2, 2, 2, 2, 2, 2, 2, 2, 3, 3, 3, 3, 3, 3, 3, 3, 3, 3, 3, 3, 3, 3, 3, 3, 3, 3, 3, 3, 3, 3, 3, 3, 3, 3, 3, 3, 3, 3, 3, 3];
Elect_vehicle = [[70, 100, 30], [70, 100, 30], [70, 100, 30], [70, 100, 30], [70, 100, 30], [70, 100, 30], [70, 100, 30], [70, 100, 30], [70, 100, 30], [70, 100, 30], [70, 100, 30], [70, 100, 30], [70, 100, 30], [70, 100, 30], [70, 100, 30], [70, 100, 30], [70, 100, 30], [70, 100, 30], [70, 100, 30], [70, 100, 30], [70, 100, 30], [70, 100, 30], [70, 100, 30], [70, 100, 30], [70, 100, 30], [70, 100, 30], [70, 100, 30], [70, 100, 30], [70, 100, 30], [70, 100, 30], [70, 100, 30], [70, 100, 30], [80, 120, 30], [80, 120, 30], [80, 120, 30], [80, 120, 30], [80, 120, 30], [80, 120, 30], [80, 120, 30], [80, 120, 30], [80, 120, 30], [80, 120, 30], [80, 120, 30], [80, 120, 30], [80, 120, 30], [80, 120, 30], [80, 120, 30], [80, 120, 30], [80, 120, 30], [80, 120, 30], [80, 120, 30], [80, 120, 30], [80, 120, 30], [80, 120, 30], [80, 120, 30], [80, 120, 30], [80, 120, 30], [80, 120, 30], [80, 120, 30], [80, 120, 30], [80, 120, 30], [80, 120, 30], [80, 120, 30], [80, 120, 30], [90, 140, 40], [90, 140, 40], [90, 140, 40], [90, 140, 40], [90, 140, 40], [90, 140, 40], [90, 140, 40], [90, 140, 40], [90, 140, 40], [90, 140, 40], [90, 140, 40], [90, 140, 40], [90, 140, 40], [90, 140, 40], [90, 140, 40], [90, 140, 40], [90, 140, 40], [90, 140, 40], [90, 140, 40], [90, 140, 40], [90, 140, 40], [90, 140, 40], [90, 140, 40], [90, 140, 40], [90, 140, 40], [90, 140, 40], [90, 140, 40], [90, 140, 40], [90, 140, 40], [90, 140, 40], [90, 140, 40], [90, 140, 40]];